40
0 1 0.6 0.31
0 2 0.64 0.23
0 3 0.57 0.16
0 4 0.64 0.22
0 5 0.63 0.18
0 6 0.38 0.18
0 7 0.48 0.14
0 8 0.67 0.24
0 9 0.72 0.14
0 10 0.78 0.08
0 11 0.66 0.24
0 12 0.57 0.17
0 13 0.58 0.2
0 14 0.52 0.28
0 15 0.6 0.17
0 16 0.59 0.22
0 17 0.76 0.23
0 18 0.34 0.06
0 19 0.58 0.07
0 20 0.39 0.06
0 21 0.56 0.24
0 22 0.72 0.3
0 23 0.78 0.2
0 24 0.7 0.27
0 25 0.54 0.22
0 26 0.51 0.12
0 27 0.56 0.26
0 28 0.72 0.17
0 29 0.52 0.18
0 30 0.56 0.2
0 31 0.68 0.24
0 32 0.54 0.18
0 33 0.8 0.19
0 34 0.72 0.24
0 35 0.31 0.02
0 36 0.58 0.24
0 37 0.73 0.23
0 38 0.68 0.12
0 39 0.6 0.25
1 2 0.44 0.26
1 3 0.38 0.24
1 4 0.81 0.28
1 5 0.28 0.18
1 6 0.8 0.31
1 7 0.64 0.25
1 8 0.53 0.26
1 9 0.71 0.24
1 10 0.44 0.23
1 11 0.56 0.2
1 12 0.64 0.27
1 13 0.7 0.22
1 14 0.59 0.3
1 15 0.71 0.24
1 16 0.58 0.16
1 17 0.56 0.14
1 18 0.44 0.28
1 19 0.56 0.34
1 20 0.68 0.33
1 21 0.47 0.1
1 22 0.76 0.22
1 23 0.62 0.24
1 24 0.65 0.14
1 25 0.5 0.2
1 26 0.58 0.32
1 27 0.46 0.29
1 28 0.87 0.26
1 29 0.66 0.24
1 30 0.63 0.2
1 31 0.58 0.26
1 32 0.47 0.23
1 33 0.63 0.27
1 34 0.51 0.14
1 35 0.6 0.33
1 36 0.46 0.17
1 37 0.74 0.18
1 38 0.78 0.29
1 39 0.75 0.24
2 3 0.43 0.26
2 4 0.76 0.4
2 5 0.59 0.29
2 6 0.56 0.27
2 7 0.49 0.19
2 8 0.65 0.34
2 9 0.38 0.26
2 10 0.66 0.27
2 11 0.56 0.28
2 12 0.43 0.26
2 13 0.72 0.14
2 14 0.41 0.19
2 15 0.43 0.23
2 16 0.72 0.22
2 17 0.54 0.21
2 18 0.82 0.26
2 19 0.52 0.3
2 20 0.71 0.17
2 21 0.75 0.26
2 22 0.61 0.15
2 23 0.42 0.22
2 24 0.5 0.22
2 25 0.7 0.16
2 26 0.26 0.11
2 27 0.42 0.16
2 28 0.52 0.3
2 29 0.76 0.27
2 30 0.6 0.3
2 31 0.75 0.18
2 32 0.6 0.17
2 33 0.68 0.29
2 34 0.58 0.3
2 35 0.52 0.25
2 36 0.44 0.23
2 37 0.41 0.18
2 38 0.56 0.2
2 39 0.61 0.11
3 4 0.46 0.22
3 5 0.52 0.26
3 6 0.68 0.27
3 7 0.6 0.17
3 8 0.4 0.08
3 9 0.81 0.15
3 10 0.8 0.09
3 11 0.66 0.18
3 12 0.3 0.22
3 13 0.74 0.12
3 14 0.65 0.32
3 15 0.75 0.14
3 16 0.73 0.25
3 17 0.57 0.24
3 18 0.82 0.22
3 19 0.77 0.23
3 20 0.38 0.1
3 21 0.32 0.16
3 22 0.56 0.26
3 23 0.52 0.16
3 24 0.66 0.12
3 25 0.7 0.1
3 26 0.44 0.16
3 27 0.79 0.23
3 28 0.59 0.32
3 29 0.82 0.25
3 30 0.72 0.18
3 31 0.66 0.16
3 32 0.85 0.19
3 33 0.76 0.28
3 34 0.56 0.25
3 35 0.39 0.18
3 36 0.68 0.25
3 37 0.57 0.08
3 38 0.64 0.25
3 39 0.6 0.28
4 5 0.76 0.36
4 6 0.66 0.32
4 7 0.65 0.25
4 8 0.54 0.3
4 9 0.62 0.24
4 10 0.53 0.3
4 11 0.56 0.25
4 12 0.49 0.14
4 13 0.64 0.27
4 14 0.36 0.34
4 15 0.61 0.29
4 16 0.62 0.32
4 17 0.5 0.39
4 18 0.72 0.25
4 19 0.4 0.25
4 20 0.58 0.28
4 21 0.78 0.23
4 22 0.39 0.29
4 23 0.62 0.31
4 24 0.45 0.19
4 25 0.62 0.25
4 26 0.5 0.29
4 27 0.35 0.24
4 28 0.56 0.35
4 29 0.71 0.22
4 30 0.68 0.2
4 31 0.32 0.28
4 32 0.62 0.31
4 33 0.68 0.35
4 34 0.49 0.14
4 35 0.44 0.2
4 36 0.83 0.37
4 37 0.53 0.23
4 38 0.81 0.3
4 39 0.59 0.39
5 6 0.8 0.33
5 7 0.36 0.25
5 8 0.5 0.34
5 9 0.43 0.23
5 10 0.72 0.17
5 11 0.68 0.29
5 12 0.66 0.27
5 13 0.6 0.15
5 14 0.5 0.28
5 15 0.77 0.25
5 16 0.62 0.3
5 17 0.46 0.16
5 18 0.41 0.24
5 19 0.62 0.16
5 20 0.52 0.24
5 21 0.5 0.27
5 22 0.7 0.18
5 23 0.34 0.2
5 24 0.5 0.23
5 25 0.5 0.17
5 26 0.6 0.3
5 27 0.74 0.22
5 28 0.85 0.26
5 29 0.44 0.28
5 30 0.65 0.32
5 31 0.67 0.19
5 32 0.48 0.27
5 33 0.49 0.28
5 34 0.64 0.26
5 35 0.32 0.16
5 36 0.72 0.28
5 37 0.59 0.19
5 38 0.61 0.3
5 39 0.68 0.26
6 7 0.72 0.21
6 8 0.72 0.35
6 9 0.75 0.24
6 10 0.4 0.18
6 11 0.74 0.32
6 12 0.75 0.35
6 13 0.59 0.27
6 14 0.45 0.34
6 15 0.3 0.17
6 16 0.84 0.23
6 17 0.74 0.17
6 18 0.68 0.24
6 19 0.26 0.25
6 20 0.72 0.24
6 21 0.66 0.31
6 22 0.64 0.28
6 23 0.62 0.27
6 24 0.56 0.27
6 25 0.7 0.25
6 26 0.82 0.29
6 27 0.56 0.24
6 28 0.76 0.3
6 29 0.63 0.35
6 30 0.64 0.32
6 31 0.82 0.31
6 32 0.56 0.18
6 33 0.43 0.24
6 34 0.65 0.32
6 35 0.5 0.2
6 36 0.49 0.24
6 37 0.5 0.23
6 38 0.68 0.22
6 39 0.77 0.16
7 8 0.73 0.24
7 9 0.59 0.14
7 10 0.4 0.08
7 11 0.64 0.2
7 12 0.58 0.22
7 13 0.75 0.14
7 14 0.54 0.2
7 15 0.63 0.04
7 16 0.48 0.26
7 17 0.45 0.14
7 18 0.58 0.2
7 19 0.46 0.14
7 20 0.51 0.08
7 21 0.28 0.18
7 22 0.34 0.16
7 23 0.5 0.18
7 24 0.42 0.14
7 25 0.58 0.12
7 26 0.24 0.08
7 27 0.42 0.13
7 28 0.68 0.24
7 29 0.8 0.27
7 30 0.51 0.22
7 31 0.33 0.18
7 32 0.73 0.18
7 33 0.69 0.26
7 34 0.65 0.11
7 35 0.46 0.16
7 36 0.56 0.16
7 37 0.67 0.1
7 38 0.76 0.24
7 39 0.56 0.21
8 9 0.61 0.23
8 10 0.63 0.17
8 11 0.66 0.26
8 12 0.7 0.3
8 13 0.58 0.2
8 14 0.57 0.38
8 15 0.46 0.2
8 16 0.4 0.18
8 17 0.64 0.3
8 18 0.53 0.3
8 19 0.68 0.3
8 20 0.76 0.18
8 21 0.56 0.24
8 22 0.72 0.23
8 23 0.68 0.24
8 24 0.44 0.2
8 25 0.61 0.18
8 26 0.8 0.24
8 27 0.72 0.29
8 28 0.44 0.32
8 29 0.56 0.3
8 30 0.69 0.26
8 31 0.4 0.24
8 32 0.46 0.27
8 33 0.52 0.27
8 34 0.38 0.33
8 35 0.64 0.26
8 36 0.7 0.32
8 37 0.42 0.16
8 38 0.52 0.33
8 39 0.84 0.36
9 10 0.77 0.06
9 11 0.68 0.22
9 12 0.68 0.27
9 13 0.54 0.27
9 14 0.74 0.34
9 15 0.54 0.18
9 16 0.7 0.32
9 17 0.46 0.21
9 18 0.75 0.16
9 19 0.8 0.21
9 20 0.62 0.2
9 21 0.82 0.31
9 22 0.54 0.3
9 23 0.4 0.3
9 24 0.72 0.27
9 25 0.66 0.25
9 26 0.44 0.22
9 27 0.46 0.27
9 28 0.6 0.22
9 29 0.53 0.24
9 30 0.41 0.2
9 31 0.72 0.26
9 32 0.62 0.16
9 33 0.64 0.28
9 34 0.58 0.1
9 35 0.75 0.16
9 36 0.38 0.22
9 37 0.79 0.23
9 38 0.44 0.1
9 39 0.71 0.28
10 11 0.36 0.18
10 12 0.51 0.25
10 13 0.45 0.21
10 14 0.66 0.28
10 15 0.64 0.12
10 16 0.51 0.3
10 17 0.57 0.15
10 18 0.71 0.14
10 19 0.66 0.15
10 20 0.72 0.14
10 21 0.68 0.25
10 22 0.5 0.24
10 23 0.45 0.25
10 24 0.58 0.21
10 25 0.45 0.19
10 26 0.62 0.16
10 27 0.82 0.21
10 28 0.79 0.25
10 29 0.68 0.26
10 30 0.69 0.26
10 31 0.73 0.25
10 32 0.5 0.1
10 33 0.72 0.22
10 34 0.25 0.16
10 35 0.51 0.1
10 36 0.39 0.16
10 37 0.53 0.17
10 38 0.52 0.16
10 39 0.58 0.25
11 12 0.76 0.29
11 13 0.48 0.14
11 14 0.62 0.24
11 15 0.62 0.16
11 16 0.5 0.28
11 17 0.46 0.26
11 18 0.52 0.18
11 19 0.52 0.22
11 20 0.68 0.28
11 21 0.54 0.1
11 22 0.66 0.22
11 23 0.36 0.18
11 24 0.22 0.06
11 25 0.64 0.12
11 26 0.58 0.28
11 27 0.52 0.24
11 28 0.54 0.23
11 29 0.67 0.21
11 30 0.49 0.22
11 31 0.48 0.18
11 32 0.63 0.14
11 33 0.37 0.1
11 34 0.61 0.13
11 35 0.56 0.26
11 36 0.7 0.2
11 37 0.48 0.1
11 38 0.3 0.12
11 39 0.7 0.3
12 13 0.68 0.21
12 14 0.7 0.3
12 15 0.57 0.18
12 16 0.63 0.19
12 17 0.6 0.28
12 18 0.62 0.11
12 19 0.68 0.24
12 20 0.28 0.14
12 21 0.32 0.22
12 22 0.8 0.34
12 23 0.48 0.25
12 24 0.78 0.23
12 25 0.72 0.2
12 26 0.69 0.15
12 27 0.49 0.27
12 28 0.29 0.28
12 29 0.64 0.08
12 30 0.42 0.07
12 31 0.38 0.25
12 32 0.62 0.18
12 33 0.76 0.25
12 34 0.6 0.24
12 35 0.44 0.19
12 36 0.38 0.24
12 37 0.62 0.22
12 38 0.46 0.17
12 39 0.6 0.26
13 14 0.52 0.28
13 15 0.53 0.1
13 16 0.73 0.18
13 17 0.75 0.18
13 18 0.84 0.14
13 19 0.68 0.2
13 20 0.73 0.22
13 21 0.6 0.12
13 22 0.7 0.22
13 23 0.64 0.08
13 24 0.35 0.08
13 25 0.64 0.02
13 26 0.71 0.22
13 27 0.64 0.19
13 28 0.62 0.28
13 29 0.62 0.13
13 30 0.71 0.23
13 31 0.42 0.04
13 32 0.66 0.24
13 33 0.61 0.24
13 34 0.34 0.25
13 35 0.41 0.22
13 36 0.57 0.18
13 37 0.39 0.04
13 38 0.62 0.2
13 39 0.48 0.16
14 15 0.38 0.18
14 16 0.49 0.2
14 17 0.64 0.28
14 18 0.68 0.34
14 19 0.71 0.28
14 20 0.68 0.28
14 21 0.47 0.2
14 22 0.2 0.2
14 23 0.72 0.3
14 24 0.42 0.24
14 25 0.78 0.26
14 26 0.56 0.28
14 27 0.64 0.27
14 28 0.68 0.36
14 29 0.71 0.22
14 30 0.64 0.32
14 31 0.68 0.32
14 32 0.8 0.34
14 33 0.78 0.34
14 34 0.53 0.31
14 35 0.26 0.26
14 36 0.57 0.28
14 37 0.74 0.24
14 38 0.78 0.36
14 39 0.32 0.18
15 16 0.55 0.22
15 17 0.56 0.1
15 18 0.55 0.23
15 19 0.56 0.1
15 20 0.78 0.12
15 21 0.59 0.14
15 22 0.48 0.2
15 23 0.62 0.14
15 24 0.62 0.1
15 25 0.4 0.08
15 26 0.62 0.12
15 27 0.26 0.09
15 28 0.68 0.2
15 29 0.33 0.23
15 30 0.56 0.25
15 31 0.56 0.14
15 32 0.49 0.18
15 33 0.59 0.22
15 34 0.53 0.15
15 35 0.59 0.15
15 36 0.25 0.12
15 37 0.7 0.06
15 38 0.75 0.24
15 39 0.68 0.2
16 17 0.54 0.2
16 18 0.68 0.24
16 19 0.76 0.25
16 20 0.79 0.26
16 21 0.66 0.26
16 22 0.64 0.36
16 23 0.66 0.1
16 24 0.38 0.22
16 25 0.6 0.16
16 26 0.46 0.32
16 27 0.62 0.13
16 28 0.64 0.33
16 29 0.46 0.22
16 30 0.29 0.12
16 31 0.61 0.22
16 32 0.6 0.36
16 33 0.76 0.27
16 34 0.76 0.22
16 35 0.34 0.2
16 36 0.78 0.32
16 37 0.45 0.18
16 38 0.68 0.22
16 39 0.74 0.3
17 18 0.62 0.24
17 19 0.59 0.2
17 20 0.67 0.22
17 21 0.64 0.24
17 22 0.44 0.3
17 23 0.12 0.1
17 24 0.68 0.2
17 25 0.4 0.16
17 26 0.69 0.18
17 27 0.64 0.15
17 28 0.46 0.13
17 29 0.46 0.26
17 30 0.76 0.22
17 31 0.58 0.22
17 32 0.52 0.18
17 33 0.64 0.22
17 34 0.42 0.25
17 35 0.58 0.25
17 36 0.54 0.12
17 37 0.8 0.16
17 38 0.64 0.24
17 39 0.36 0.1
18 19 0.68 0.13
18 20 0.73 0.12
18 21 0.68 0.26
18 22 0.48 0.3
18 23 0.56 0.14
18 24 0.74 0.22
18 25 0.65 0.16
18 26 0.7 0.18
18 27 0.81 0.3
18 28 0.6 0.18
18 29 0.22 0.12
18 30 0.6 0.16
18 31 0.61 0.18
18 32 0.56 0.24
18 33 0.57 0.25
18 34 0.65 0.26
18 35 0.65 0.08
18 36 0.69 0.18
18 37 0.49 0.18
18 38 0.34 0.06
18 39 0.73 0.3
19 20 0.6 0.13
19 21 0.67 0.24
19 22 0.79 0.3
19 23 0.71 0.24
19 24 0.74 0.2
19 25 0.48 0.18
19 26 0.57 0.19
19 27 0.53 0.19
19 28 0.54 0.1
19 29 0.7 0.25
19 30 0.55 0.27
19 31 0.68 0.24
19 32 0.37 0.24
19 33 0.62 0.12
19 34 0.68 0.25
19 35 0.63 0.05
19 36 0.46 0.22
19 37 0.76 0.16
19 38 0.82 0.19
19 39 0.64 0.22
20 21 0.6 0.26
20 22 0.52 0.24
20 23 0.76 0.18
20 24 0.51 0.22
20 25 0.62 0.2
20 26 0.54 0.06
20 27 0.66 0.21
20 28 0.33 0.23
20 29 0.56 0.22
20 30 0.7 0.14
20 31 0.66 0.26
20 32 0.58 0.17
20 33 0.48 0.24
20 34 0.52 0.19
20 35 0.7 0.08
20 36 0.66 0.23
20 37 0.34 0.18
20 38 0.6 0.18
20 39 0.36 0.19
21 22 0.53 0.12
21 23 0.56 0.16
21 24 0.5 0.04
21 25 0.72 0.1
21 26 0.52 0.26
21 27 0.7 0.23
21 28 0.4 0.16
21 29 0.6 0.19
21 30 0.73 0.29
21 31 0.61 0.16
21 32 0.62 0.24
21 33 0.54 0.2
21 34 0.72 0.23
21 35 0.38 0.26
21 36 0.7 0.26
21 37 0.42 0.08
21 38 0.48 0.22
21 39 0.28 0.24
22 23 0.56 0.26
22 24 0.62 0.16
22 25 0.68 0.2
22 26 0.36 0.24
22 27 0.74 0.29
22 28 0.6 0.24
22 29 0.66 0.28
22 30 0.82 0.38
22 31 0.53 0.26
22 32 0.86 0.2
22 33 0.64 0.25
22 34 0.73 0.24
22 35 0.43 0.32
22 36 0.66 0.26
22 37 0.56 0.18
22 38 0.63 0.34
22 39 0.52 0.26
23 24 0.58 0.12
23 25 0.28 0.06
23 26 0.63 0.24
23 27 0.58 0.23
23 28 0.58 0.23
23 29 0.34 0.21
23 30 0.64 0.22
23 31 0.46 0.12
23 32 0.64 0.26
23 33 0.52 0.28
23 34 0.3 0.21
23 35 0.56 0.22
23 36 0.66 0.22
23 37 0.73 0.08
23 38 0.66 0.2
23 39 0.47 0.2
24 25 0.45 0.06
24 26 0.36 0.22
24 27 0.74 0.19
24 28 0.66 0.2
24 29 0.67 0.15
24 30 0.36 0.25
24 31 0.4 0.12
24 32 0.79 0.2
24 33 0.59 0.16
24 34 0.69 0.19
24 35 0.48 0.25
24 36 0.55 0.22
24 37 0.49 0.04
24 38 0.52 0.18
24 39 0.56 0.24
25 26 0.64 0.2
25 27 0.52 0.17
25 28 0.64 0.26
25 29 0.5 0.15
25 30 0.81 0.25
25 31 0.36 0.06
25 32 0.78 0.26
25 33 0.8 0.22
25 34 0.58 0.23
25 35 0.82 0.23
25 36 0.54 0.2
25 37 0.45 0.02
25 38 0.73 0.22
25 39 0.75 0.18
26 27 0.66 0.21
26 28 0.72 0.29
26 29 0.76 0.23
26 30 0.72 0.2
26 31 0.57 0.26
26 32 0.5 0.23
26 33 0.5 0.3
26 34 0.84 0.19
26 35 0.7 0.14
26 36 0.7 0.24
26 37 0.59 0.18
26 38 0.6 0.24
26 39 0.35 0.13
27 28 0.42 0.21
27 29 0.59 0.32
27 30 0.82 0.25
27 31 0.63 0.23
27 32 0.48 0.26
27 33 0.33 0.14
27 34 0.79 0.24
27 35 0.48 0.24
27 36 0.48 0.21
27 37 0.44 0.15
27 38 0.8 0.33
27 39 0.76 0.25
28 29 0.6 0.3
28 30 0.71 0.22
28 31 0.56 0.28
28 32 0.83 0.3
28 33 0.72 0.22
28 34 0.54 0.26
28 35 0.57 0.15
28 36 0.67 0.24
28 37 0.67 0.24
28 38 0.38 0.12
28 39 0.6 0.19
29 30 0.75 0.1
29 31 0.73 0.17
29 32 0.61 0.26
29 33 0.35 0.28
29 34 0.43 0.26
29 35 0.76 0.2
29 36 0.47 0.3
29 37 0.71 0.17
29 38 0.45 0.18
29 39 0.7 0.29
30 31 0.76 0.26
30 32 0.76 0.25
30 33 0.71 0.18
30 34 0.5 0.17
30 35 0.63 0.22
30 36 0.58 0.22
30 37 0.48 0.26
30 38 0.64 0.1
30 39 0.45 0.19
31 32 0.47 0.2
31 33 0.58 0.24
31 34 0.48 0.29
31 35 0.62 0.26
31 36 0.71 0.14
31 37 0.34 0.08
31 38 0.66 0.16
31 39 0.51 0.2
32 33 0.26 0.12
32 34 0.34 0.26
32 35 0.63 0.2
32 36 0.24 0.06
32 37 0.7 0.24
32 38 0.72 0.18
32 39 0.7 0.28
33 34 0.6 0.23
33 35 0.8 0.17
33 36 0.5 0.1
33 37 0.44 0.2
33 38 0.63 0.22
33 39 0.46 0.32
34 35 0.75 0.26
34 36 0.58 0.27
34 37 0.63 0.21
34 38 0.77 0.2
34 39 0.58 0.28
35 36 0.8 0.26
35 37 0.48 0.21
35 38 0.84 0.14
35 39 0.48 0.27
36 37 0.76 0.18
36 38 0.55 0.12
36 39 0.62 0.22
37 38 0.46 0.22
37 39 0.46 0.2
38 39 0.51 0.28
